15	2	2
7866	7866	
171	619	672	
700	920	920	
242	953	1033	
225	723	771	
820	863	915	
877	757	765	
870	193	197	
49	763	817	
88	665	686	
92	870	893	
488	944	957	
477	239	250	
650	128	129	
205	924	990	
891	927	997	
